NAME          COPTPROB
OBJSENSE
  MIN
ROWS
 N  __OBJ___
 L  C7      
 L  C26     
 L  C67     
 L  C79     
 L  C83     
 L  C86     
 L  C91     
 L  C104    
 L  C105    
 L  C120    
 L  C124    
 L  C154    
COLUMNS
    MARKER    'MARKER'                 'INTORG'
    x5        __OBJ___  117
    x5        C7        -1
    x26       __OBJ___  680
    x26       C79       -1
    x26       C83       -1
    x38       __OBJ___  530
    x38       C86       -1
    x38       C91       -1
    x63       __OBJ___  133
    x63       C67       -1
    x63       C105      -1
    x74       __OBJ___  894
    x74       C124      -1
    x74       C154      -1
    x93       __OBJ___  469
    x93       C26       -1
    x93       C120      -1
    x110      __OBJ___  816
    x110      C104      -1
    x110      C154      -1
    x154      __OBJ___  103
    x154      C26       -1
    x154      C67       -1
    x171      __OBJ___  960
    x171      C120      -1
    x171      C154      -1
    x176      __OBJ___  143
    x176      C7        -1
    x176      C26       -1
    x231      __OBJ___  461
    x231      C86       -1
    x231      C105      -1
    x336      __OBJ___  716
    x336      C7        -1
    x336      C79       -1
    x368      __OBJ___  446
    x368      C86       -1
    x394      __OBJ___  350
    x394      C91       -1
    x394      C104      -1
    x397      __OBJ___  294
    x397      C83       -1
    x397      C124      -1
    MARKER    'MARKER'                 'INTEND'
RHS
    RHS       __OBJ___  -32239
    RHS       C7        -1
    RHS       C26       -1
    RHS       C67       -1
    RHS       C79       -1
    RHS       C83       -1
    RHS       C86       -1
    RHS       C91       -1
    RHS       C104      -1
    RHS       C105      -1
    RHS       C120      -1
    RHS       C124      -1
    RHS       C154      -1
BOUNDS
 UP BOUND     x5        1
 UP BOUND     x26       1
 UP BOUND     x38       1
 UP BOUND     x63       1
 UP BOUND     x74       1
 UP BOUND     x93       1
 UP BOUND     x110      1
 UP BOUND     x154      1
 UP BOUND     x171      1
 UP BOUND     x176      1
 UP BOUND     x231      1
 UP BOUND     x336      1
 UP BOUND     x368      1
 UP BOUND     x394      1
 UP BOUND     x397      1
ENDATA
